solution status: optimal solution found
objective value:                     169828.285714284
d11(0,0)                                            1 	(obj:0)
d11(1,1)                                            1 	(obj:0)
d11(1,2)                                            1 	(obj:0)
d11(2,4)                                            1 	(obj:0)
d11(2,5)                                            1 	(obj:0)
d11(2,7)                                            1 	(obj:0)
d11(2,8)                                            1 	(obj:0)
d11(2,10)                                           1 	(obj:0)
d11(2,11)                                           1 	(obj:0)
d11(3,13)                                           1 	(obj:0)
d11(3,14)                                           1 	(obj:0)
d11(3,15)                                           1 	(obj:0)
d11(3,16)                                           1 	(obj:0)
d11(3,17)                                           1 	(obj:0)
d11(3,19)                                           1 	(obj:0)
d11(3,20)                                           1 	(obj:0)
d11(3,22)                                           1 	(obj:0)
d11(3,23)                                           1 	(obj:0)
d11(3,25)                                           1 	(obj:0)
d11(3,26)                                           1 	(obj:0)
d11(3,28)                                           1 	(obj:0)
d11(3,29)                                           1 	(obj:0)
d11(3,31)                                           1 	(obj:0)
d11(3,32)                                           1 	(obj:0)
d11(3,34)                                           1 	(obj:0)
d11(3,35)                                           1 	(obj:0)
d11(3,37)                                           1 	(obj:0)
d11(3,38)                                           1 	(obj:0)
d11(4,40)                                           1 	(obj:0)
d11(4,41)                                           1 	(obj:0)
d11(4,43)                                           1 	(obj:0)
d11(4,44)                                           1 	(obj:0)
d11(4,46)                                           1 	(obj:0)
d11(4,47)                                           1 	(obj:0)
d11(4,49)                                           1 	(obj:0)
d11(4,50)                                           1 	(obj:0)
d11(4,52)                                           1 	(obj:0)
d11(4,53)                                           1 	(obj:0)
d11(4,55)                                           1 	(obj:0)
d11(4,56)                                           1 	(obj:0)
d11(4,58)                                           1 	(obj:0)
d11(4,59)                                           1 	(obj:0)
d11(4,61)                                           1 	(obj:0)
d11(4,62)                                           1 	(obj:0)
d11(4,64)                                           1 	(obj:0)
d11(4,65)                                           1 	(obj:0)
d11(4,67)                                           1 	(obj:0)
d11(4,68)                                           1 	(obj:0)
d11(4,70)                                           1 	(obj:0)
d11(4,71)                                           1 	(obj:0)
d11(4,73)                                           1 	(obj:0)
d11(4,74)                                           1 	(obj:0)
d11(4,76)                                           1 	(obj:0)
d11(4,77)                                           1 	(obj:0)
d11(4,79)                                           1 	(obj:0)
d11(4,80)                                           1 	(obj:0)
d11(4,82)                                           1 	(obj:0)
d11(4,83)                                           1 	(obj:0)
d11(4,85)                                           1 	(obj:0)
d11(4,86)                                           1 	(obj:0)
d11(4,88)                                           1 	(obj:0)
d11(4,89)                                           1 	(obj:0)
d11(4,91)                                           1 	(obj:0)
d11(4,92)                                           1 	(obj:0)
d11(4,94)                                           1 	(obj:0)
d11(4,95)                                           1 	(obj:0)
d11(4,97)                                           1 	(obj:0)
d11(4,98)                                           1 	(obj:0)
d11(4,100)                                          1 	(obj:0)
d11(4,101)                                          1 	(obj:0)
d11(4,103)                                          1 	(obj:0)
d11(4,104)                                          1 	(obj:0)
d11(4,106)                                          1 	(obj:0)
d11(4,107)                                          1 	(obj:0)
d11(4,109)                                          1 	(obj:0)
d11(4,110)                                          1 	(obj:0)
d11(4,112)                                          1 	(obj:0)
d11(4,113)                                          1 	(obj:0)
d11(4,115)                                          1 	(obj:0)
d11(4,116)                                          1 	(obj:0)
d11(4,118)                                          1 	(obj:0)
d11(4,119)                                          1 	(obj:0)
d12(1,3)                                            1 	(obj:0)
d12(2,6)                                            1 	(obj:0)
d12(2,9)                                            1 	(obj:0)
d12(2,12)                                           1 	(obj:0)
d12(4,42)                                           1 	(obj:0)
d12(4,48)                                           1 	(obj:0)
d12(4,54)                                           1 	(obj:0)
d12(4,57)                                           1 	(obj:0)
d12(4,60)                                           1 	(obj:0)
d12(4,63)                                           1 	(obj:0)
d12(4,66)                                           1 	(obj:0)
d12(4,69)                                           1 	(obj:0)
d12(4,72)                                           1 	(obj:0)
d12(4,75)                                           1 	(obj:0)
d12(4,78)                                           1 	(obj:0)
d12(4,81)                                           1 	(obj:0)
d12(4,84)                                           1 	(obj:0)
d12(4,87)                                           1 	(obj:0)
d12(4,90)                                           1 	(obj:0)
d12(4,93)                                           1 	(obj:0)
d12(4,96)                                           1 	(obj:0)
d12(4,99)                                           1 	(obj:0)
d12(4,102)                                          1 	(obj:0)
d12(4,105)                                          1 	(obj:0)
d12(4,108)                                          1 	(obj:0)
d12(4,111)                                          1 	(obj:0)
d12(4,114)                                          1 	(obj:0)
d12(4,117)                                          1 	(obj:0)
d12(4,120)                                          1 	(obj:0)
d21(3,13)                                           1 	(obj:0)
d21(3,14)                                           1 	(obj:0)
d21(3,16)                                           1 	(obj:0)
d21(3,22)                                           1 	(obj:0)
d21(4,40)                                           1 	(obj:0)
d21(4,41)                                           1 	(obj:0)
d21(4,42)                                           1 	(obj:0)
d21(4,43)                                           1 	(obj:0)
d21(4,44)                                           1 	(obj:0)
d21(4,45)                                           1 	(obj:0)
d21(4,46)                                           1 	(obj:0)
d21(4,47)                                           1 	(obj:0)
d21(4,49)                                           1 	(obj:0)
d21(4,50)                                           1 	(obj:0)
d21(4,51)                                           1 	(obj:0)
d21(4,52)                                           1 	(obj:0)
d21(4,53)                                           1 	(obj:0)
d21(4,55)                                           1 	(obj:0)
d21(4,58)                                           1 	(obj:0)
d21(4,59)                                           1 	(obj:0)
d21(4,61)                                           1 	(obj:0)
d21(4,62)                                           1 	(obj:0)
d21(4,67)                                           1 	(obj:0)
d21(4,68)                                           1 	(obj:0)
d21(4,69)                                           1 	(obj:0)
d21(4,70)                                           1 	(obj:0)
d21(4,71)                                           1 	(obj:0)
d21(4,73)                                           1 	(obj:0)
d21(4,76)                                           1 	(obj:0)
d21(4,77)                                           1 	(obj:0)
d21(4,79)                                           1 	(obj:0)
d21(4,85)                                           1 	(obj:0)
d21(4,94)                                           1 	(obj:0)
d21(4,95)                                           1 	(obj:0)
d21(4,97)                                           1 	(obj:0)
d21(4,103)                                          1 	(obj:0)
STE(1,1)                              5475.9252131906 	(obj:0)
STE(0,0)                                         7875 	(obj:0)
STE(1,2)                             6472.69121652389 	(obj:0)
STE(1,3)                             7470.28732357506 	(obj:0)
STE(2,4)                             3084.38982993483 	(obj:0)
STE(2,5)                             4081.15583326812 	(obj:0)
STE(2,6)                             5077.92183660141 	(obj:0)
STE(2,7)                             4081.15583326812 	(obj:0)
STE(2,8)                             5077.92183660141 	(obj:0)
STE(2,9)                              6074.6878399347 	(obj:0)
STE(2,10)                            5078.75194031928 	(obj:0)
STE(2,11)                            6075.51794365257 	(obj:0)
STE(2,12)                            7072.28394698587 	(obj:0)
STE(3,13)                            240.171623268147 	(obj:0)
STE(3,14)                            1236.93762660144 	(obj:0)
STE(3,15)                            2454.38982993482 	(obj:0)
STE(3,16)                            1236.93762660144 	(obj:0)
STE(3,17)                            2233.70362993473 	(obj:0)
STE(3,18)                            3451.15583326812 	(obj:0)
STE(3,19)                            2233.70362993473 	(obj:0)
STE(3,20)                            3230.46963326802 	(obj:0)
STE(3,21)                            4447.92183660141 	(obj:0)
STE(3,22)                            1236.93762660144 	(obj:0)
STE(3,23)                            2233.70362993473 	(obj:0)
STE(3,24)                            3451.15583326812 	(obj:0)
STE(3,25)                            2233.70362993473 	(obj:0)
STE(3,26)                            3230.46963326802 	(obj:0)
STE(3,27)                            4447.92183660141 	(obj:0)
STE(3,28)                            3230.46963326802 	(obj:0)
STE(3,29)                            4227.23563660131 	(obj:0)
STE(3,30)                             5444.6878399347 	(obj:0)
STE(3,31)                             2234.5337336526 	(obj:0)
STE(3,32)                            3231.29973698589 	(obj:0)
STE(3,33)                            4448.75194031928 	(obj:0)
STE(3,34)                            3231.29973698589 	(obj:0)
STE(3,35)                            4228.06574031918 	(obj:0)
STE(3,36)                            5445.51794365257 	(obj:0)
STE(3,37)                            4228.06574031919 	(obj:0)
STE(3,38)                            5224.83174365248 	(obj:0)
STE(3,39)                            6442.28394698587 	(obj:0)
STE(4,40)                           -2412.06401333316 	(obj:0)
STE(4,41)                           -1415.29800999987 	(obj:0)
STE(4,42)                           -389.828376731853 	(obj:0)
STE(4,43)                           -1415.29800999987 	(obj:0)
STE(4,44)                            -418.53200666658 	(obj:0)
STE(4,45)                            606.937626601439 	(obj:0)
STE(4,46)                           -197.845806666493 	(obj:0)
STE(4,47)                            798.920196666797 	(obj:0)
STE(4,48)                            1824.38982993482 	(obj:0)
STE(4,49)                           -1415.29800999987 	(obj:0)
STE(4,50)                           -418.532006666582 	(obj:0)
STE(4,51)                            606.937626601437 	(obj:0)
STE(4,52)                           -418.532006666582 	(obj:0)
STE(4,53)                            578.233996666709 	(obj:0)
STE(4,54)                            1603.70362993473 	(obj:0)
STE(4,55)                             798.92019666681 	(obj:0)
STE(4,56)                             1795.6862000001 	(obj:0)
STE(4,57)                            2821.15583326812 	(obj:0)
STE(4,58)                           -418.532006666581 	(obj:0)
STE(4,59)                             578.23399666671 	(obj:0)
STE(4,60)                            1603.70362993473 	(obj:0)
STE(4,61)                             578.23399666671 	(obj:0)
STE(4,62)                                        1575 	(obj:0)
STE(4,63)                            2600.46963326802 	(obj:0)
STE(4,64)                             1795.6862000001 	(obj:0)
STE(4,65)                            2792.45220333339 	(obj:0)
STE(4,66)                            3817.92183660141 	(obj:0)
STE(4,67)                           -1415.29800999987 	(obj:0)
STE(4,68)                           -418.532006666582 	(obj:0)
STE(4,69)                            606.937626601437 	(obj:0)
STE(4,70)                           -418.532006666581 	(obj:0)
STE(4,71)                             578.23399666671 	(obj:0)
STE(4,72)                            1603.70362993473 	(obj:0)
STE(4,73)                             798.92019666681 	(obj:0)
STE(4,74)                             1795.6862000001 	(obj:0)
STE(4,75)                            2821.15583326812 	(obj:0)
STE(4,76)                           -418.532006666582 	(obj:0)
STE(4,77)                            578.233996666709 	(obj:0)
STE(4,78)                            1603.70362993473 	(obj:0)
STE(4,79)                            578.233996666709 	(obj:0)
STE(4,80)                                        1575 	(obj:0)
STE(4,81)                            2600.46963326802 	(obj:0)
STE(4,82)                             1795.6862000001 	(obj:0)
STE(4,83)                            2792.45220333339 	(obj:0)
STE(4,84)                            3817.92183660141 	(obj:0)
STE(4,85)                            578.233996666709 	(obj:0)
STE(4,86)                                        1575 	(obj:0)
STE(4,87)                            2600.46963326802 	(obj:0)
STE(4,88)                                        1575 	(obj:0)
STE(4,89)                            2571.76600333329 	(obj:0)
STE(4,90)                            3597.23563660131 	(obj:0)
STE(4,91)                            2792.45220333339 	(obj:0)
STE(4,92)                            3789.21820666668 	(obj:0)
STE(4,93)                             4814.6878399347 	(obj:0)
STE(4,94)                           -417.701902948709 	(obj:0)
STE(4,95)                            579.064100384582 	(obj:0)
STE(4,96)                             1604.5337336526 	(obj:0)
STE(4,97)                            579.064100384582 	(obj:0)
STE(4,98)                            1575.83010371787 	(obj:0)
STE(4,99)                            2601.29973698589 	(obj:0)
STE(4,100)                           1796.51630371797 	(obj:0)
STE(4,101)                           2793.28230705126 	(obj:0)
STE(4,102)                           3818.75194031928 	(obj:0)
STE(4,103)                           579.064100384581 	(obj:0)
STE(4,104)                           1575.83010371787 	(obj:0)
STE(4,105)                           2601.29973698589 	(obj:0)
STE(4,106)                           1575.83010371787 	(obj:0)
STE(4,107)                           2572.59610705116 	(obj:0)
STE(4,108)                           3598.06574031918 	(obj:0)
STE(4,109)                           2793.28230705126 	(obj:0)
STE(4,110)                           3790.04831038455 	(obj:0)
STE(4,111)                           4815.51794365257 	(obj:0)
STE(4,112)                           1575.83010371788 	(obj:0)
STE(4,113)                           2572.59610705117 	(obj:0)
STE(4,114)                           3598.06574031919 	(obj:0)
STE(4,115)                           2572.59610705117 	(obj:0)
STE(4,116)                           3569.36211038446 	(obj:0)
STE(4,117)                           4594.83174365248 	(obj:0)
STE(4,118)                           3790.04831038457 	(obj:0)
STE(4,119)                           4786.81431371786 	(obj:0)
STE(4,120)                           5812.28394698587 	(obj:0)
y1(4,100)                            1820.01207294118 	(obj:0)
y1(4,101)                            922.922669941217 	(obj:0)
y1(4,103)                            1820.01207294118 	(obj:0)
y1(4,104)                            922.922669941217 	(obj:0)
y1(4,106)                            1820.01207294118 	(obj:0)
y1(4,107)                            922.922669941217 	(obj:0)
y1(4,109)                            1820.01207294118 	(obj:0)
y1(4,110)                            922.922669941217 	(obj:0)
y1(4,112)                            1820.01207294118 	(obj:0)
y1(4,113)                            922.922669941217 	(obj:0)
y1(4,115)                            1820.01207294118 	(obj:0)
y1(4,116)                            922.922669941217 	(obj:0)
y1(4,118)                            1820.01207294118 	(obj:0)
y1(4,119)                            922.922669941217 	(obj:0)
AVE(3)                                3399.3204933139 	(obj:0)
AVE(4)                               3353.21046544222 	(obj:0)
WG(2)                                3326.45170866643 	(obj:10)
WG(3)                                 3399.3204933139 	(obj:10)
WG(4)                                3353.21046544222 	(obj:10)
BG(1)                                4087.11316849838 	(obj:10)
BG(2)                                753.737517792992 	(obj:10)
BG(3)                                 1096.5978566861 	(obj:10)
BG(4)                                966.397361028355 	(obj:10)
WB(1)                                3134.60043707458 	(obj:0)
AVE(1)                               3134.60043707458 	(obj:0)
AVE(2)                               3326.45170866643 	(obj:0)
y1(1,1)                              1592.16730812846 	(obj:0)
y1(1,2)                              695.077905128497 	(obj:0)
y1(2,4)                               1585.3818449302 	(obj:0)
y1(2,5)                              688.292441930234 	(obj:0)
y1(2,7)                               1585.3818449302 	(obj:0)
y1(2,8)                              688.292441930234 	(obj:0)
y1(2,10)                              1585.3818449302 	(obj:0)
y1(2,11)                             688.292441930234 	(obj:0)
y1(3,13)                             1992.79638600001 	(obj:0)
y1(3,14)                             1095.70698300005 	(obj:0)
y1(3,16)                             1992.79638600001 	(obj:0)
y1(3,17)                             1095.70698300005 	(obj:0)
y1(3,19)                             1992.79638600001 	(obj:0)
y1(3,20)                             1095.70698300005 	(obj:0)
y1(3,22)                             1992.79638600001 	(obj:0)
y1(3,23)                             1095.70698300005 	(obj:0)
y1(3,25)                             1992.79638600001 	(obj:0)
y1(3,26)                             1095.70698300005 	(obj:0)
y1(3,28)                             1992.79638600001 	(obj:0)
y1(3,29)                             1095.70698300005 	(obj:0)
y1(3,31)                             1992.79638600001 	(obj:0)
y1(3,32)                             1095.70698300005 	(obj:0)
y1(3,34)                             1992.79638600001 	(obj:0)
y1(3,35)                             1095.70698300005 	(obj:0)
y1(3,37)                             1992.79638600001 	(obj:0)
y1(3,38)                             1095.70698300005 	(obj:0)
y1(4,40)                             1820.01207294118 	(obj:0)
y1(4,41)                             922.922669941217 	(obj:0)
y1(4,43)                             1820.01207294118 	(obj:0)
y1(4,44)                             922.922669941217 	(obj:0)
y1(4,46)                             1820.01207294118 	(obj:0)
y1(4,47)                             922.922669941217 	(obj:0)
y1(4,49)                             1820.01207294118 	(obj:0)
y1(4,50)                             922.922669941217 	(obj:0)
y1(4,52)                             1820.01207294118 	(obj:0)
y1(4,53)                             922.922669941217 	(obj:0)
y1(4,55)                             1820.01207294118 	(obj:0)
y1(4,56)                             922.922669941217 	(obj:0)
y1(4,58)                             1820.01207294118 	(obj:0)
y1(4,59)                             922.922669941217 	(obj:0)
y1(4,61)                             1820.01207294118 	(obj:0)
y1(4,62)                             922.922669941217 	(obj:0)
y1(4,64)                             1820.01207294118 	(obj:0)
y1(4,65)                             922.922669941217 	(obj:0)
y1(4,67)                             1820.01207294118 	(obj:0)
y1(4,68)                             922.922669941217 	(obj:0)
y1(4,70)                             1820.01207294118 	(obj:0)
y1(4,71)                             922.922669941217 	(obj:0)
y1(4,73)                             1820.01207294118 	(obj:0)
y1(4,74)                             922.922669941217 	(obj:0)
y1(4,76)                             1820.01207294118 	(obj:0)
y1(4,77)                             922.922669941217 	(obj:0)
y1(4,79)                             1820.01207294118 	(obj:0)
y1(4,80)                             922.922669941217 	(obj:0)
y1(4,82)                             1820.01207294118 	(obj:0)
y1(4,83)                             922.922669941217 	(obj:0)
y1(4,85)                             1820.01207294118 	(obj:0)
y1(4,86)                             922.922669941217 	(obj:0)
y1(4,88)                             1820.01207294118 	(obj:0)
y1(4,89)                             922.922669941217 	(obj:0)
y1(4,91)                             1820.01207294118 	(obj:0)
y1(4,92)                             922.922669941217 	(obj:0)
y1(4,94)                             1820.01207294118 	(obj:0)
y1(4,95)                             922.922669941217 	(obj:0)
y1(4,97)                             1820.01207294118 	(obj:0)
y1(4,98)                             922.922669941217 	(obj:0)
y2(1,3)                              237.144551131637 	(obj:0)
y2(2,6)                              244.206972011377 	(obj:0)
y2(2,9)                              244.206972011377 	(obj:0)
y2(2,12)                             244.206972011388 	(obj:0)
